(set-option :produce-models true)
(declare-const x_size0 Int)
(declare-const x_size1 Int)
(declare-const x_size2 Int)
(declare-const x_size3 Int)
(declare-const x_stride0 Int)
(declare-const x_stride1 Int)
(declare-const x_stride2 Int)
(declare-const x_stride3 Int)
(declare-const x_storage_offset Int)
(define-fun ge () Bool (>= x_size0 0))
(assert ge)
(define-fun ge_1 () Bool (>= x_size1 0))
(assert ge_1)
(define-fun ge_2 () Bool (>= x_size2 0))
(assert ge_2)
(define-fun ge_3 () Bool (>= x_size3 0))
(assert ge_3)
(define-fun eq () Bool (= x_size0 0))
(define-fun not_ () Bool (not eq))
(assert not_)
(define-fun sub () Int (- x_size0 1))
(define-fun mul () Int (* x_stride0 sub))
(define-fun add () Int (+ 1 mul))
(define-fun eq_1 () Bool (= x_size1 0))
(define-fun not__1 () Bool (not eq_1))
(assert not__1)
(define-fun sub_1 () Int (- x_size1 1))
(define-fun mul_1 () Int (* x_stride1 sub_1))
(define-fun add_1 () Int (+ add mul_1))
(define-fun eq_2 () Bool (= x_size2 0))
(define-fun not__2 () Bool (not eq_2))
(assert not__2)
(define-fun sub_2 () Int (- x_size2 1))
(define-fun mul_2 () Int (* x_stride2 sub_2))
(define-fun add_2 () Int (+ add_1 mul_2))
(define-fun eq_3 () Bool (= x_size3 0))
(define-fun not__3 () Bool (not eq_3))
(assert not__3)
(define-fun sub_3 () Int (- x_size3 1))
(define-fun mul_3 () Int (* x_stride3 sub_3))
(define-fun add_3 () Int (+ add_2 mul_3))
(define-fun mul_4 () Int (* 4 add_3))
(define-fun mul_5 () Int (* x_size0 x_size1))
(define-fun mul_6 () Int (* mul_5 x_size2))
(define-fun mul_7 () Int (* mul_6 x_size3))
(define-fun eq_4 () Bool (= mul_7 0))
(define-fun not__4 () Bool (not eq_4))
(assert not__4)
(define-fun eq_5 () Bool (= x_size3 1))
(define-fun not__5 () Bool (not eq_5))
(assert not__5)
(define-fun eq_6 () Bool (= x_stride3 1))
(assert eq_6)
(define-fun eq_7 () Bool (= x_size2 1))
(define-fun not__6 () Bool (not eq_7))
(assert not__6)
(define-fun eq_8 () Bool (= x_stride2 x_size3))
(assert eq_8)
(define-fun mul_8 () Int (* x_size3 x_size2))
(define-fun eq_9 () Bool (= x_size1 1))
(define-fun not__7 () Bool (not eq_9))
(assert not__7)
(define-fun eq_10 () Bool (= x_stride1 mul_8))
(assert eq_10)
(define-fun mul_9 () Int (* mul_8 x_size1))
(define-fun eq_11 () Bool (= x_size0 1))
(define-fun not__8 () Bool (not eq_11))
(assert not__8)
(define-fun eq_12 () Bool (= x_stride0 mul_9))
(assert eq_12)
(define-fun mul_10 () Int (* mul_9 x_size0))
(define-fun eq_13 () Bool (= x_stride1 1))
(define-fun not__9 () Bool (not eq_13))
(assert not__9)
(define-fun eq_14 () Bool (= x_stride1 0))
(define-fun not__10 () Bool (not eq_14))
(assert not__10)
(define-fun lt () Bool (< x_stride1 0))
(define-fun not__11 () Bool (not lt))
(assert not__11)
(define-fun gt () Bool (> x_size1 1))
(assert gt)
(define-fun mul_11 () Int (* x_stride1 x_size1))
(define-fun lt_1 () Bool (< x_stride3 mul_11))
(assert lt_1)
(define-fun eq_15 () Bool (= x_size0 x_size0))
(assert eq_15)
(define-fun eq_16 () Bool (= x_size1 x_size1))
(assert eq_16)
(define-fun eq_17 () Bool (= x_size2 x_size2))
(assert eq_17)
(define-fun eq_18 () Bool (= x_size3 x_size3))
(assert eq_18)
(define-fun eq_19 () Bool (= x_stride3 0))
(define-fun not__12 () Bool (not eq_19))
(assert not__12)
(define-fun eq_20 () Bool (= x_stride2 0))
(define-fun not__13 () Bool (not eq_20))
(assert not__13)
(define-fun lt_2 () Bool (< x_stride3 x_stride2))
(assert lt_2)
(define-fun lt_3 () Bool (< x_stride2 x_stride1))
(assert lt_3)
(define-fun eq_21 () Bool (= x_stride0 0))
(define-fun not__14 () Bool (not eq_21))
(assert not__14)
(define-fun lt_4 () Bool (< x_stride1 x_stride0))
(assert lt_4)
(define-fun mul_12 () Int (* mul_9 sub))
(define-fun add_4 () Int (+ 1 mul_12))
(define-fun mul_13 () Int (* mul_8 sub_1))
(define-fun add_5 () Int (+ add_4 mul_13))
(define-fun mul_14 () Int (* x_size3 sub_2))
(define-fun add_6 () Int (+ add_5 mul_14))
(define-fun add_7 () Int (+ add_6 sub_3))
(define-fun mul_15 () Int (* 4 add_7))
(define-fun eq_22 () Bool (= mul_8 mul_8))
(assert eq_22)
(define-fun eq_23 () Bool (= mul_9 mul_9))
(assert eq_23)
(define-fun eq_24 () Bool (= mul_8 1))
(define-fun not__15 () Bool (not eq_24))
(assert not__15)
(define-fun eq_25 () Bool (= mul_8 0))
(define-fun not__16 () Bool (not eq_25))
(assert not__16)
(define-fun lt_5 () Bool (< mul_8 0))
(define-fun not__17 () Bool (not lt_5))
(assert not__17)
(define-fun lt_6 () Bool (< 1 mul_9))
(assert lt_6)
(define-fun ge_4 () Bool (>= x_storage_offset 0))
(assert ge_4)
(define-fun add_8 () Int (+ x_storage_offset add_3))
(define-fun mul_16 () Int (* 4 add_8))
(declare-const outputs_1__size0 Int)
(declare-const outputs_1__size1 Int)
(declare-const outputs_1__size2 Int)
(declare-const outputs_1__size3 Int)
(declare-const outputs_1__stride0 Int)
(declare-const outputs_1__stride1 Int)
(declare-const outputs_1__stride2 Int)
(declare-const outputs_1__stride3 Int)
(declare-const outputs_1__storage_offset Int)
(define-fun ge_5 () Bool (>= outputs_1__size0 0))
(assert ge_5)
(define-fun ge_6 () Bool (>= outputs_1__size1 0))
(assert ge_6)
(define-fun ge_7 () Bool (>= outputs_1__size2 0))
(assert ge_7)
(define-fun ge_8 () Bool (>= outputs_1__size3 0))
(assert ge_8)
(define-fun eq_26 () Bool (= outputs_1__size0 0))
(define-fun not__18 () Bool (not eq_26))
(assert not__18)
(define-fun sub_4 () Int (- outputs_1__size0 1))
(define-fun mul_17 () Int (* outputs_1__stride0 sub_4))
(define-fun add_9 () Int (+ 1 mul_17))
(define-fun eq_27 () Bool (= outputs_1__size1 0))
(define-fun not__19 () Bool (not eq_27))
(assert not__19)
(define-fun sub_5 () Int (- outputs_1__size1 1))
(define-fun mul_18 () Int (* outputs_1__stride1 sub_5))
(define-fun add_10 () Int (+ add_9 mul_18))
(define-fun eq_28 () Bool (= outputs_1__size2 0))
(define-fun not__20 () Bool (not eq_28))
(assert not__20)
(define-fun sub_6 () Int (- outputs_1__size2 1))
(define-fun mul_19 () Int (* outputs_1__stride2 sub_6))
(define-fun add_11 () Int (+ add_10 mul_19))
(define-fun eq_29 () Bool (= outputs_1__size3 0))
(define-fun not__21 () Bool (not eq_29))
(assert not__21)
(define-fun sub_7 () Int (- outputs_1__size3 1))
(define-fun mul_20 () Int (* outputs_1__stride3 sub_7))
(define-fun add_12 () Int (+ add_11 mul_20))
(define-fun mul_21 () Int (* 4 add_12))
(define-fun mul_22 () Int (* outputs_1__size0 outputs_1__size1))
(define-fun mul_23 () Int (* mul_22 outputs_1__size2))
(define-fun mul_24 () Int (* mul_23 outputs_1__size3))
(define-fun eq_30 () Bool (= mul_24 0))
(define-fun not__22 () Bool (not eq_30))
(assert not__22)
(define-fun eq_31 () Bool (= outputs_1__size3 1))
(define-fun not__23 () Bool (not eq_31))
(assert not__23)
(define-fun eq_32 () Bool (= outputs_1__stride3 1))
(assert eq_32)
(define-fun eq_33 () Bool (= outputs_1__size2 1))
(define-fun not__24 () Bool (not eq_33))
(assert not__24)
(define-fun eq_34 () Bool (= outputs_1__stride2 outputs_1__size3))
(assert eq_34)
(define-fun mul_25 () Int (* outputs_1__size3 outputs_1__size2))
(define-fun eq_35 () Bool (= outputs_1__size1 1))
(define-fun not__25 () Bool (not eq_35))
(assert not__25)
(define-fun eq_36 () Bool (= outputs_1__stride1 mul_25))
(assert eq_36)
(define-fun mul_26 () Int (* mul_25 outputs_1__size1))
(define-fun eq_37 () Bool (= outputs_1__size0 1))
(define-fun not__26 () Bool (not eq_37))
(assert not__26)
(define-fun eq_38 () Bool (= outputs_1__stride0 mul_26))
(assert eq_38)
(define-fun mul_27 () Int (* mul_26 outputs_1__size0))
(define-fun eq_39 () Bool (= outputs_1__stride1 1))
(define-fun not__27 () Bool (not eq_39))
(assert not__27)
(define-fun eq_40 () Bool (= outputs_1__stride1 0))
(define-fun not__28 () Bool (not eq_40))
(assert not__28)
(define-fun lt_7 () Bool (< outputs_1__stride1 0))
(define-fun not__29 () Bool (not lt_7))
(assert not__29)
(define-fun gt_1 () Bool (> outputs_1__size1 1))
(assert gt_1)
(define-fun mul_28 () Int (* outputs_1__stride1 outputs_1__size1))
(define-fun lt_8 () Bool (< outputs_1__stride3 mul_28))
(assert lt_8)
(define-fun eq_41 () Bool (= outputs_1__size0 outputs_1__size0))
(assert eq_41)
(define-fun eq_42 () Bool (= outputs_1__size1 outputs_1__size1))
(assert eq_42)
(define-fun eq_43 () Bool (= outputs_1__size2 outputs_1__size2))
(assert eq_43)
(define-fun eq_44 () Bool (= outputs_1__size3 outputs_1__size3))
(assert eq_44)
(define-fun eq_45 () Bool (= outputs_1__stride3 0))
(define-fun not__30 () Bool (not eq_45))
(assert not__30)
(define-fun eq_46 () Bool (= outputs_1__stride2 0))
(define-fun not__31 () Bool (not eq_46))
(assert not__31)
(define-fun lt_9 () Bool (< outputs_1__stride3 outputs_1__stride2))
(assert lt_9)
(define-fun lt_10 () Bool (< outputs_1__stride2 outputs_1__stride1))
(assert lt_10)
(define-fun eq_47 () Bool (= outputs_1__stride0 0))
(define-fun not__32 () Bool (not eq_47))
(assert not__32)
(define-fun lt_11 () Bool (< outputs_1__stride1 outputs_1__stride0))
(assert lt_11)
(define-fun mul_29 () Int (* mul_26 sub_4))
(define-fun add_13 () Int (+ 1 mul_29))
(define-fun mul_30 () Int (* mul_25 sub_5))
(define-fun add_14 () Int (+ add_13 mul_30))
(define-fun mul_31 () Int (* outputs_1__size3 sub_6))
(define-fun add_15 () Int (+ add_14 mul_31))
(define-fun add_16 () Int (+ add_15 sub_7))
(define-fun mul_32 () Int (* 4 add_16))
(define-fun eq_48 () Bool (= mul_25 mul_25))
(assert eq_48)
(define-fun eq_49 () Bool (= mul_26 mul_26))
(assert eq_49)
(define-fun eq_50 () Bool (= mul_25 1))
(define-fun not__33 () Bool (not eq_50))
(assert not__33)
(define-fun eq_51 () Bool (= mul_25 0))
(define-fun not__34 () Bool (not eq_51))
(assert not__34)
(define-fun lt_12 () Bool (< mul_25 0))
(define-fun not__35 () Bool (not lt_12))
(assert not__35)
(define-fun lt_13 () Bool (< 1 mul_26))
(assert lt_13)
(define-fun ge_9 () Bool (>= outputs_1__storage_offset 0))
(assert ge_9)
(define-fun add_17 () Int (+ outputs_1__storage_offset add_12))
(define-fun mul_33 () Int (* 4 add_17))
(declare-const outputs_5__size0 Int)
(declare-const outputs_5__size1 Int)
(declare-const outputs_5__size2 Int)
(declare-const outputs_5__size3 Int)
(declare-const outputs_5__stride0 Int)
(declare-const outputs_5__stride1 Int)
(declare-const outputs_5__stride2 Int)
(declare-const outputs_5__stride3 Int)
(declare-const outputs_5__storage_offset Int)
(define-fun ge_10 () Bool (>= outputs_5__size0 0))
(assert ge_10)
(define-fun ge_11 () Bool (>= outputs_5__size1 0))
(assert ge_11)
(define-fun ge_12 () Bool (>= outputs_5__size2 0))
(assert ge_12)
(define-fun ge_13 () Bool (>= outputs_5__size3 0))
(assert ge_13)
(define-fun eq_52 () Bool (= outputs_5__size0 0))
(define-fun not__36 () Bool (not eq_52))
(assert not__36)
(define-fun sub_8 () Int (- outputs_5__size0 1))
(define-fun mul_34 () Int (* outputs_5__stride0 sub_8))
(define-fun add_18 () Int (+ 1 mul_34))
(define-fun eq_53 () Bool (= outputs_5__size1 0))
(define-fun not__37 () Bool (not eq_53))
(assert not__37)
(define-fun sub_9 () Int (- outputs_5__size1 1))
(define-fun mul_35 () Int (* outputs_5__stride1 sub_9))
(define-fun add_19 () Int (+ add_18 mul_35))
(define-fun eq_54 () Bool (= outputs_5__size2 0))
(define-fun not__38 () Bool (not eq_54))
(assert not__38)
(define-fun sub_10 () Int (- outputs_5__size2 1))
(define-fun mul_36 () Int (* outputs_5__stride2 sub_10))
(define-fun add_20 () Int (+ add_19 mul_36))
(define-fun eq_55 () Bool (= outputs_5__size3 0))
(define-fun not__39 () Bool (not eq_55))
(assert not__39)
(define-fun sub_11 () Int (- outputs_5__size3 1))
(define-fun mul_37 () Int (* outputs_5__stride3 sub_11))
(define-fun add_21 () Int (+ add_20 mul_37))
(define-fun mul_38 () Int (* 4 add_21))
(define-fun mul_39 () Int (* outputs_5__size0 outputs_5__size1))
(define-fun mul_40 () Int (* mul_39 outputs_5__size2))
(define-fun mul_41 () Int (* mul_40 outputs_5__size3))
(define-fun eq_56 () Bool (= mul_41 0))
(define-fun not__40 () Bool (not eq_56))
(assert not__40)
(define-fun eq_57 () Bool (= outputs_5__size3 1))
(define-fun not__41 () Bool (not eq_57))
(assert not__41)
(define-fun eq_58 () Bool (= outputs_5__stride3 1))
(assert eq_58)
(define-fun eq_59 () Bool (= outputs_5__size2 1))
(define-fun not__42 () Bool (not eq_59))
(assert not__42)
(define-fun eq_60 () Bool (= outputs_5__stride2 outputs_5__size3))
(assert eq_60)
(define-fun mul_42 () Int (* outputs_5__size3 outputs_5__size2))
(define-fun eq_61 () Bool (= outputs_5__size1 1))
(define-fun not__43 () Bool (not eq_61))
(assert not__43)
(define-fun eq_62 () Bool (= outputs_5__stride1 mul_42))
(assert eq_62)
(define-fun mul_43 () Int (* mul_42 outputs_5__size1))
(define-fun eq_63 () Bool (= outputs_5__size0 1))
(define-fun not__44 () Bool (not eq_63))
(assert not__44)
(define-fun eq_64 () Bool (= outputs_5__stride0 mul_43))
(assert eq_64)
(define-fun mul_44 () Int (* mul_43 outputs_5__size0))
(define-fun eq_65 () Bool (= outputs_5__stride1 1))
(define-fun not__45 () Bool (not eq_65))
(assert not__45)
(define-fun eq_66 () Bool (= outputs_5__stride1 0))
(define-fun not__46 () Bool (not eq_66))
(assert not__46)
(define-fun lt_14 () Bool (< outputs_5__stride1 0))
(define-fun not__47 () Bool (not lt_14))
(assert not__47)
(define-fun gt_2 () Bool (> outputs_5__size1 1))
(assert gt_2)
(define-fun mul_45 () Int (* outputs_5__stride1 outputs_5__size1))
(define-fun lt_15 () Bool (< outputs_5__stride3 mul_45))
(assert lt_15)
(define-fun eq_67 () Bool (= outputs_5__size0 outputs_5__size0))
(assert eq_67)
(define-fun eq_68 () Bool (= outputs_5__size1 outputs_5__size1))
(assert eq_68)
(define-fun eq_69 () Bool (= outputs_5__size2 outputs_5__size2))
(assert eq_69)
(define-fun eq_70 () Bool (= outputs_5__size3 outputs_5__size3))
(assert eq_70)
(define-fun eq_71 () Bool (= outputs_5__stride3 0))
(define-fun not__48 () Bool (not eq_71))
(assert not__48)
(define-fun eq_72 () Bool (= outputs_5__stride2 0))
(define-fun not__49 () Bool (not eq_72))
(assert not__49)
(define-fun lt_16 () Bool (< outputs_5__stride3 outputs_5__stride2))
(assert lt_16)
(define-fun lt_17 () Bool (< outputs_5__stride2 outputs_5__stride1))
(assert lt_17)
(define-fun eq_73 () Bool (= outputs_5__stride0 0))
(define-fun not__50 () Bool (not eq_73))
(assert not__50)
(define-fun lt_18 () Bool (< outputs_5__stride1 outputs_5__stride0))
(assert lt_18)
(define-fun mul_46 () Int (* mul_43 sub_8))
(define-fun add_22 () Int (+ 1 mul_46))
(define-fun mul_47 () Int (* mul_42 sub_9))
(define-fun add_23 () Int (+ add_22 mul_47))
(define-fun mul_48 () Int (* outputs_5__size3 sub_10))
(define-fun add_24 () Int (+ add_23 mul_48))
(define-fun add_25 () Int (+ add_24 sub_11))
(define-fun mul_49 () Int (* 4 add_25))
(define-fun eq_74 () Bool (= mul_42 mul_42))
(assert eq_74)
(define-fun eq_75 () Bool (= mul_43 mul_43))
(assert eq_75)
(define-fun eq_76 () Bool (= mul_42 1))
(define-fun not__51 () Bool (not eq_76))
(assert not__51)
(define-fun eq_77 () Bool (= mul_42 0))
(define-fun not__52 () Bool (not eq_77))
(assert not__52)
(define-fun lt_19 () Bool (< mul_42 0))
(define-fun not__53 () Bool (not lt_19))
(assert not__53)
(define-fun lt_20 () Bool (< 1 mul_43))
(assert lt_20)
(define-fun ge_14 () Bool (>= outputs_5__storage_offset 0))
(assert ge_14)
(define-fun add_26 () Int (+ outputs_5__storage_offset add_21))
(define-fun mul_50 () Int (* 4 add_26))
(declare-const outputs_8__size0 Int)
(declare-const outputs_8__size1 Int)
(declare-const outputs_8__size2 Int)
(declare-const outputs_8__size3 Int)
(declare-const outputs_8__stride0 Int)
(declare-const outputs_8__stride1 Int)
(declare-const outputs_8__stride2 Int)
(declare-const outputs_8__stride3 Int)
(declare-const outputs_8__storage_offset Int)
(define-fun ge_15 () Bool (>= outputs_8__size0 0))
(assert ge_15)
(define-fun ge_16 () Bool (>= outputs_8__size1 0))
(assert ge_16)
(define-fun ge_17 () Bool (>= outputs_8__size2 0))
(assert ge_17)
(define-fun ge_18 () Bool (>= outputs_8__size3 0))
(assert ge_18)
(define-fun eq_78 () Bool (= outputs_8__size0 0))
(define-fun not__54 () Bool (not eq_78))
(assert not__54)
(define-fun sub_12 () Int (- outputs_8__size0 1))
(define-fun mul_51 () Int (* outputs_8__stride0 sub_12))
(define-fun add_27 () Int (+ 1 mul_51))
(define-fun eq_79 () Bool (= outputs_8__size1 0))
(define-fun not__55 () Bool (not eq_79))
(assert not__55)
(define-fun sub_13 () Int (- outputs_8__size1 1))
(define-fun mul_52 () Int (* outputs_8__stride1 sub_13))
(define-fun add_28 () Int (+ add_27 mul_52))
(define-fun eq_80 () Bool (= outputs_8__size2 0))
(define-fun not__56 () Bool (not eq_80))
(assert not__56)
(define-fun sub_14 () Int (- outputs_8__size2 1))
(define-fun mul_53 () Int (* outputs_8__stride2 sub_14))
(define-fun add_29 () Int (+ add_28 mul_53))
(define-fun eq_81 () Bool (= outputs_8__size3 0))
(define-fun not__57 () Bool (not eq_81))
(assert not__57)
(define-fun sub_15 () Int (- outputs_8__size3 1))
(define-fun mul_54 () Int (* outputs_8__stride3 sub_15))
(define-fun add_30 () Int (+ add_29 mul_54))
(define-fun mul_55 () Int (* 4 add_30))
(define-fun mul_56 () Int (* outputs_8__size0 outputs_8__size1))
(define-fun mul_57 () Int (* mul_56 outputs_8__size2))
(define-fun mul_58 () Int (* mul_57 outputs_8__size3))
(define-fun eq_82 () Bool (= mul_58 0))
(define-fun not__58 () Bool (not eq_82))
(assert not__58)
(define-fun eq_83 () Bool (= outputs_8__size3 1))
(define-fun not__59 () Bool (not eq_83))
(assert not__59)
(define-fun eq_84 () Bool (= outputs_8__stride3 1))
(assert eq_84)
(define-fun eq_85 () Bool (= outputs_8__size2 1))
(define-fun not__60 () Bool (not eq_85))
(assert not__60)
(define-fun eq_86 () Bool (= outputs_8__stride2 outputs_8__size3))
(assert eq_86)
(define-fun mul_59 () Int (* outputs_8__size3 outputs_8__size2))
(define-fun eq_87 () Bool (= outputs_8__size1 1))
(define-fun not__61 () Bool (not eq_87))
(assert not__61)
(define-fun eq_88 () Bool (= outputs_8__stride1 mul_59))
(assert eq_88)
(define-fun mul_60 () Int (* mul_59 outputs_8__size1))
(define-fun eq_89 () Bool (= outputs_8__size0 1))
(define-fun not__62 () Bool (not eq_89))
(assert not__62)
(define-fun eq_90 () Bool (= outputs_8__stride0 mul_60))
(assert eq_90)
(define-fun mul_61 () Int (* mul_60 outputs_8__size0))
(define-fun eq_91 () Bool (= outputs_8__stride1 1))
(define-fun not__63 () Bool (not eq_91))
(assert not__63)
(define-fun eq_92 () Bool (= outputs_8__stride1 0))
(define-fun not__64 () Bool (not eq_92))
(assert not__64)
(define-fun lt_21 () Bool (< outputs_8__stride1 0))
(define-fun not__65 () Bool (not lt_21))
(assert not__65)
(define-fun gt_3 () Bool (> outputs_8__size1 1))
(assert gt_3)
(define-fun mul_62 () Int (* outputs_8__stride1 outputs_8__size1))
(define-fun lt_22 () Bool (< outputs_8__stride3 mul_62))
(assert lt_22)
(define-fun eq_93 () Bool (= outputs_8__size0 outputs_8__size0))
(assert eq_93)
(define-fun eq_94 () Bool (= outputs_8__size1 outputs_8__size1))
(assert eq_94)
(define-fun eq_95 () Bool (= outputs_8__size2 outputs_8__size2))
(assert eq_95)
(define-fun eq_96 () Bool (= outputs_8__size3 outputs_8__size3))
(assert eq_96)
(define-fun eq_97 () Bool (= outputs_8__stride3 0))
(define-fun not__66 () Bool (not eq_97))
(assert not__66)
(define-fun eq_98 () Bool (= outputs_8__stride2 0))
(define-fun not__67 () Bool (not eq_98))
(assert not__67)
(define-fun lt_23 () Bool (< outputs_8__stride3 outputs_8__stride2))
(assert lt_23)
(define-fun lt_24 () Bool (< outputs_8__stride2 outputs_8__stride1))
(assert lt_24)
(define-fun eq_99 () Bool (= outputs_8__stride0 0))
(define-fun not__68 () Bool (not eq_99))
(assert not__68)
(define-fun lt_25 () Bool (< outputs_8__stride1 outputs_8__stride0))
(assert lt_25)
(define-fun mul_63 () Int (* mul_60 sub_12))
(define-fun add_31 () Int (+ 1 mul_63))
(define-fun mul_64 () Int (* mul_59 sub_13))
(define-fun add_32 () Int (+ add_31 mul_64))
(define-fun mul_65 () Int (* outputs_8__size3 sub_14))
(define-fun add_33 () Int (+ add_32 mul_65))
(define-fun add_34 () Int (+ add_33 sub_15))
(define-fun mul_66 () Int (* 4 add_34))
(define-fun eq_100 () Bool (= mul_59 mul_59))
(assert eq_100)
(define-fun eq_101 () Bool (= mul_60 mul_60))
(assert eq_101)
(define-fun eq_102 () Bool (= mul_59 1))
(define-fun not__69 () Bool (not eq_102))
(assert not__69)
(define-fun eq_103 () Bool (= mul_59 0))
(define-fun not__70 () Bool (not eq_103))
(assert not__70)
(define-fun lt_26 () Bool (< mul_59 0))
(define-fun not__71 () Bool (not lt_26))
(assert not__71)
(define-fun lt_27 () Bool (< 1 mul_60))
(assert lt_27)
(define-fun ge_19 () Bool (>= outputs_8__storage_offset 0))
(assert ge_19)
(define-fun add_35 () Int (+ outputs_8__storage_offset add_30))
(define-fun mul_67 () Int (* 4 add_35))
(declare-const outputs_12__size0 Int)
(declare-const outputs_12__size1 Int)
(declare-const outputs_12__size2 Int)
(declare-const outputs_12__size3 Int)
(declare-const outputs_12__stride0 Int)
(declare-const outputs_12__stride1 Int)
(declare-const outputs_12__stride2 Int)
(declare-const outputs_12__stride3 Int)
(declare-const outputs_12__storage_offset Int)
(define-fun ge_20 () Bool (>= outputs_12__size0 0))
(assert ge_20)
(define-fun ge_21 () Bool (>= outputs_12__size1 0))
(assert ge_21)
(define-fun ge_22 () Bool (>= outputs_12__size2 0))
(assert ge_22)
(define-fun ge_23 () Bool (>= outputs_12__size3 0))
(assert ge_23)
(define-fun eq_104 () Bool (= outputs_12__size0 0))
(define-fun not__72 () Bool (not eq_104))
(assert not__72)
(define-fun sub_16 () Int (- outputs_12__size0 1))
(define-fun mul_68 () Int (* outputs_12__stride0 sub_16))
(define-fun add_36 () Int (+ 1 mul_68))
(define-fun eq_105 () Bool (= outputs_12__size1 0))
(define-fun not__73 () Bool (not eq_105))
(assert not__73)
(define-fun sub_17 () Int (- outputs_12__size1 1))
(define-fun mul_69 () Int (* outputs_12__stride1 sub_17))
(define-fun add_37 () Int (+ add_36 mul_69))
(define-fun eq_106 () Bool (= outputs_12__size2 0))
(define-fun not__74 () Bool (not eq_106))
(assert not__74)
(define-fun sub_18 () Int (- outputs_12__size2 1))
(define-fun mul_70 () Int (* outputs_12__stride2 sub_18))
(define-fun add_38 () Int (+ add_37 mul_70))
(define-fun eq_107 () Bool (= outputs_12__size3 0))
(define-fun not__75 () Bool (not eq_107))
(assert not__75)
(define-fun sub_19 () Int (- outputs_12__size3 1))
(define-fun mul_71 () Int (* outputs_12__stride3 sub_19))
(define-fun add_39 () Int (+ add_38 mul_71))
(define-fun mul_72 () Int (* 4 add_39))
(define-fun mul_73 () Int (* outputs_12__size0 outputs_12__size1))
(define-fun mul_74 () Int (* mul_73 outputs_12__size2))
(define-fun mul_75 () Int (* mul_74 outputs_12__size3))
(define-fun eq_108 () Bool (= mul_75 0))
(define-fun not__76 () Bool (not eq_108))
(assert not__76)
(define-fun eq_109 () Bool (= outputs_12__size3 1))
(define-fun not__77 () Bool (not eq_109))
(assert not__77)
(define-fun eq_110 () Bool (= outputs_12__stride3 1))
(assert eq_110)
(define-fun eq_111 () Bool (= outputs_12__size2 1))
(define-fun not__78 () Bool (not eq_111))
(assert not__78)
(define-fun eq_112 () Bool (= outputs_12__stride2 outputs_12__size3))
(assert eq_112)
(define-fun mul_76 () Int (* outputs_12__size3 outputs_12__size2))
(define-fun eq_113 () Bool (= outputs_12__size1 1))
(define-fun not__79 () Bool (not eq_113))
(assert not__79)
(define-fun eq_114 () Bool (= outputs_12__stride1 mul_76))
(assert eq_114)
(define-fun mul_77 () Int (* mul_76 outputs_12__size1))
(define-fun eq_115 () Bool (= outputs_12__size0 1))
(define-fun not__80 () Bool (not eq_115))
(assert not__80)
(define-fun eq_116 () Bool (= outputs_12__stride0 mul_77))
(assert eq_116)
(define-fun mul_78 () Int (* mul_77 outputs_12__size0))
(define-fun eq_117 () Bool (= outputs_12__stride1 1))
(define-fun not__81 () Bool (not eq_117))
(assert not__81)
(define-fun eq_118 () Bool (= outputs_12__stride1 0))
(define-fun not__82 () Bool (not eq_118))
(assert not__82)
(define-fun lt_28 () Bool (< outputs_12__stride1 0))
(define-fun not__83 () Bool (not lt_28))
(assert not__83)
(define-fun gt_4 () Bool (> outputs_12__size1 1))
(assert gt_4)
(define-fun mul_79 () Int (* outputs_12__stride1 outputs_12__size1))
(define-fun lt_29 () Bool (< outputs_12__stride3 mul_79))
(assert lt_29)
(define-fun eq_119 () Bool (= outputs_12__size0 outputs_12__size0))
(assert eq_119)
(define-fun eq_120 () Bool (= outputs_12__size1 outputs_12__size1))
(assert eq_120)
(define-fun eq_121 () Bool (= outputs_12__size2 outputs_12__size2))
(assert eq_121)
(define-fun eq_122 () Bool (= outputs_12__size3 outputs_12__size3))
(assert eq_122)
(define-fun eq_123 () Bool (= outputs_12__stride3 0))
(define-fun not__84 () Bool (not eq_123))
(assert not__84)
(define-fun eq_124 () Bool (= outputs_12__stride2 0))
(define-fun not__85 () Bool (not eq_124))
(assert not__85)
(define-fun lt_30 () Bool (< outputs_12__stride3 outputs_12__stride2))
(assert lt_30)
(define-fun lt_31 () Bool (< outputs_12__stride2 outputs_12__stride1))
(assert lt_31)
(define-fun eq_125 () Bool (= outputs_12__stride0 0))
(define-fun not__86 () Bool (not eq_125))
(assert not__86)
(define-fun lt_32 () Bool (< outputs_12__stride1 outputs_12__stride0))
(assert lt_32)
(define-fun mul_80 () Int (* mul_77 sub_16))
(define-fun add_40 () Int (+ 1 mul_80))
(define-fun mul_81 () Int (* mul_76 sub_17))
(define-fun add_41 () Int (+ add_40 mul_81))
(define-fun mul_82 () Int (* outputs_12__size3 sub_18))
(define-fun add_42 () Int (+ add_41 mul_82))
(define-fun add_43 () Int (+ add_42 sub_19))
(define-fun mul_83 () Int (* 4 add_43))
(define-fun eq_126 () Bool (= mul_76 mul_76))
(assert eq_126)
(define-fun eq_127 () Bool (= mul_77 mul_77))
(assert eq_127)
(define-fun eq_128 () Bool (= mul_76 1))
(define-fun not__87 () Bool (not eq_128))
(assert not__87)
(define-fun eq_129 () Bool (= mul_76 0))
(define-fun not__88 () Bool (not eq_129))
(assert not__88)
(define-fun lt_33 () Bool (< mul_76 0))
(define-fun not__89 () Bool (not lt_33))
(assert not__89)
(define-fun lt_34 () Bool (< 1 mul_77))
(assert lt_34)
(define-fun ge_24 () Bool (>= outputs_12__storage_offset 0))
(assert ge_24)
(define-fun add_44 () Int (+ outputs_12__storage_offset add_39))
(define-fun mul_84 () Int (* 4 add_44))
(declare-const outputs_15__size0 Int)
(declare-const outputs_15__size1 Int)
(declare-const outputs_15__size2 Int)
(declare-const outputs_15__size3 Int)
(declare-const outputs_15__stride0 Int)
(declare-const outputs_15__stride1 Int)
(declare-const outputs_15__stride2 Int)
(declare-const outputs_15__stride3 Int)
(declare-const outputs_15__storage_offset Int)
(define-fun ge_25 () Bool (>= outputs_15__size0 0))
(assert ge_25)
(define-fun ge_26 () Bool (>= outputs_15__size1 0))
(assert ge_26)
(define-fun ge_27 () Bool (>= outputs_15__size2 0))
(assert ge_27)
(define-fun ge_28 () Bool (>= outputs_15__size3 0))
(assert ge_28)
(define-fun eq_130 () Bool (= outputs_15__size0 0))
(define-fun not__90 () Bool (not eq_130))
(assert not__90)
(define-fun sub_20 () Int (- outputs_15__size0 1))
(define-fun mul_85 () Int (* outputs_15__stride0 sub_20))
(define-fun add_45 () Int (+ 1 mul_85))
(define-fun eq_131 () Bool (= outputs_15__size1 0))
(define-fun not__91 () Bool (not eq_131))
(assert not__91)
(define-fun sub_21 () Int (- outputs_15__size1 1))
(define-fun mul_86 () Int (* outputs_15__stride1 sub_21))
(define-fun add_46 () Int (+ add_45 mul_86))
(define-fun eq_132 () Bool (= outputs_15__size2 0))
(define-fun not__92 () Bool (not eq_132))
(assert not__92)
(define-fun sub_22 () Int (- outputs_15__size2 1))
(define-fun mul_87 () Int (* outputs_15__stride2 sub_22))
(define-fun add_47 () Int (+ add_46 mul_87))
(define-fun eq_133 () Bool (= outputs_15__size3 0))
(define-fun not__93 () Bool (not eq_133))
(assert not__93)
(define-fun sub_23 () Int (- outputs_15__size3 1))
(define-fun mul_88 () Int (* outputs_15__stride3 sub_23))
(define-fun add_48 () Int (+ add_47 mul_88))
(define-fun mul_89 () Int (* 4 add_48))
(define-fun mul_90 () Int (* outputs_15__size0 outputs_15__size1))
(define-fun mul_91 () Int (* mul_90 outputs_15__size2))
(define-fun mul_92 () Int (* mul_91 outputs_15__size3))
(define-fun eq_134 () Bool (= mul_92 0))
(define-fun not__94 () Bool (not eq_134))
(assert not__94)
(define-fun eq_135 () Bool (= outputs_15__size3 1))
(define-fun not__95 () Bool (not eq_135))
(assert not__95)
(define-fun eq_136 () Bool (= outputs_15__stride3 1))
(assert eq_136)
(define-fun eq_137 () Bool (= outputs_15__size2 1))
(define-fun not__96 () Bool (not eq_137))
(assert not__96)
(define-fun eq_138 () Bool (= outputs_15__stride2 outputs_15__size3))
(assert eq_138)
(define-fun mul_93 () Int (* outputs_15__size3 outputs_15__size2))
(define-fun eq_139 () Bool (= outputs_15__size1 1))
(define-fun not__97 () Bool (not eq_139))
(assert not__97)
(define-fun eq_140 () Bool (= outputs_15__stride1 mul_93))
(assert eq_140)
(define-fun mul_94 () Int (* mul_93 outputs_15__size1))
(define-fun eq_141 () Bool (= outputs_15__size0 1))
(define-fun not__98 () Bool (not eq_141))
(assert not__98)
(define-fun eq_142 () Bool (= outputs_15__stride0 mul_94))
(assert eq_142)
(define-fun mul_95 () Int (* mul_94 outputs_15__size0))
(define-fun eq_143 () Bool (= outputs_15__stride1 1))
(define-fun not__99 () Bool (not eq_143))
(assert not__99)
(define-fun eq_144 () Bool (= outputs_15__stride1 0))
(define-fun not__100 () Bool (not eq_144))
(assert not__100)
(define-fun lt_35 () Bool (< outputs_15__stride1 0))
(define-fun not__101 () Bool (not lt_35))
(assert not__101)
(define-fun gt_5 () Bool (> outputs_15__size1 1))
(assert gt_5)
(define-fun mul_96 () Int (* outputs_15__stride1 outputs_15__size1))
(define-fun lt_36 () Bool (< outputs_15__stride3 mul_96))
(assert lt_36)
(define-fun eq_145 () Bool (= outputs_15__size0 outputs_15__size0))
(assert eq_145)
(define-fun eq_146 () Bool (= outputs_15__size1 outputs_15__size1))
(assert eq_146)
(define-fun eq_147 () Bool (= outputs_15__size2 outputs_15__size2))
(assert eq_147)
(define-fun eq_148 () Bool (= outputs_15__size3 outputs_15__size3))
(assert eq_148)
(define-fun eq_149 () Bool (= outputs_15__stride3 0))
(define-fun not__102 () Bool (not eq_149))
(assert not__102)
(define-fun eq_150 () Bool (= outputs_15__stride2 0))
(define-fun not__103 () Bool (not eq_150))
(assert not__103)
(define-fun lt_37 () Bool (< outputs_15__stride3 outputs_15__stride2))
(assert lt_37)
(define-fun lt_38 () Bool (< outputs_15__stride2 outputs_15__stride1))
(assert lt_38)
(define-fun eq_151 () Bool (= outputs_15__stride0 0))
(define-fun not__104 () Bool (not eq_151))
(assert not__104)
(define-fun lt_39 () Bool (< outputs_15__stride1 outputs_15__stride0))
(assert lt_39)
(define-fun mul_97 () Int (* mul_94 sub_20))
(define-fun add_49 () Int (+ 1 mul_97))
(define-fun mul_98 () Int (* mul_93 sub_21))
(define-fun add_50 () Int (+ add_49 mul_98))
(define-fun mul_99 () Int (* outputs_15__size3 sub_22))
(define-fun add_51 () Int (+ add_50 mul_99))
(define-fun add_52 () Int (+ add_51 sub_23))
(define-fun mul_100 () Int (* 4 add_52))
(define-fun eq_152 () Bool (= mul_93 mul_93))
(assert eq_152)
(define-fun eq_153 () Bool (= mul_94 mul_94))
(assert eq_153)
(define-fun eq_154 () Bool (= mul_93 1))
(define-fun not__105 () Bool (not eq_154))
(assert not__105)
(define-fun eq_155 () Bool (= mul_93 0))
(define-fun not__106 () Bool (not eq_155))
(assert not__106)
(define-fun lt_40 () Bool (< mul_93 0))
(define-fun not__107 () Bool (not lt_40))
(assert not__107)
(define-fun lt_41 () Bool (< 1 mul_94))
(assert lt_41)
(define-fun ge_29 () Bool (>= outputs_15__storage_offset 0))
(assert ge_29)
(define-fun add_53 () Int (+ outputs_15__storage_offset add_48))
(define-fun mul_101 () Int (* 4 add_53))
(define-fun eq_156 () Bool (= x_size1 outputs_15__size1))
(assert eq_156)
(define-fun lt_42 () Bool (< x_size3 0))
(define-fun not__108 () Bool (not lt_42))
(assert not__108)
(define-fun lt_43 () Bool (< x_size2 0))
(define-fun not__109 () Bool (not lt_43))
(assert not__109)
(define-fun lt_44 () Bool (< x_size1 0))
(define-fun not__110 () Bool (not lt_44))
(assert not__110)
(define-fun lt_45 () Bool (< x_size0 0))
(define-fun not__111 () Bool (not lt_45))
(assert not__111)
(define-fun eq_157 () Bool (= x_size3 outputs_15__size3))
(assert eq_157)
(define-fun eq_158 () Bool (= x_size2 outputs_15__size2))
(assert eq_158)
(define-fun eq_159 () Bool (= x_size0 outputs_15__size0))
(assert eq_159)
(define-fun eq_160 () Bool (= outputs_15__size0 x_size0))
(assert eq_160)
(define-fun eq_161 () Bool (= outputs_15__size1 x_size1))
(assert eq_161)
(define-fun eq_162 () Bool (= outputs_15__size2 x_size2))
(assert eq_162)
(define-fun eq_163 () Bool (= outputs_15__size3 x_size3))
(assert eq_163)
(define-fun eq_164 () Bool (= mul_16 0))
(define-fun not__112 () Bool (not eq_164))
(assert not__112)
(define-fun eq_165 () Bool (= mul_101 0))
(define-fun not__113 () Bool (not eq_165))
(assert not__113)
(define-fun eq_166 () Bool (= mul_15 0))
(define-fun not__114 () Bool (not eq_166))
(assert not__114)
(define-fun output0_size0 () Int x_size0)
(define-fun output0_size1 () Int x_size1)
(define-fun output0_size2 () Int x_size2)
(define-fun output0_size3 () Int x_size3)
(define-fun output0_stride0 () Int mul_9)
(define-fun output0_stride1 () Int mul_8)
(define-fun output0_stride2 () Int x_size3)
(define-fun output0_stride3 () Int 1)
(define-fun output0_storage_offset () Int 0)
(check-sat)
(get-model)
